p cnf 51 179
-1 2 -3 0
1 -2 -3 0
-1 -2 3 0
1 2 3 0
-4 -5 -6 0
4 5 -6 0
-4 5 6 0
4 -5 6 0
7 1 0
7 -6 0
-1 6 -7 0
8 -3 0
8 -7 0
3 7 -8 0
12 10 0
12 11 0
-10 -11 -12 0
13 -12 0
13 5 0
12 -5 -13 0
-14 9 0
-14 13 0
-9 -13 14 0
15 -8 0
15 -14 0
8 14 -15 0
16 13 -17 0
-16 -13 -17 0
16 -13 17 0
-16 13 17 0
17 7 -18 0
-17 -7 -18 0
17 -7 18 0
-17 7 18 0
-19 -15 0
-19 -18 0
15 18 19 0
12 -20 -21 0
-12 20 -21 0
12 20 21 0
-12 -20 21 0
22 3 0
22 16 0
-3 -16 -22 0
-21 -22 -23 0
21 22 -23 0
-21 22 23 0
21 -22 23 0
-3 -4 -24 0
3 4 -24 0
-3 4 24 0
3 -4 24 0
25 24 0
25 -3 0
-24 3 -25 0
-26 6 0
-26 10 0
-6 -10 26 0
-10 26 -27 0
10 -26 -27 0
-10 -26 27 0
10 26 27 0
28 -25 0
28 -27 0
25 27 -28 0
29 5 0
29 21 0
-5 -21 -29 0
-30 29 0
-30 4 0
-29 -4 30 0
28 30 -31 0
-28 -30 -31 0
28 -30 31 0
-28 30 31 0
-32 -23 0
-32 31 0
23 -31 32 0
33 -12 0
33 -22 0
12 22 -33 0
-34 12 0
-34 24 0
-12 -24 34 0
35 10 0
35 -3 0
-10 3 -35 0
-36 -34 0
-36 35 0
34 -35 36 0
37 13 0
37 11 0
-13 -11 -37 0
39 -12 0
39 1 0
12 -1 -39 0
-40 38 0
-40 -39 0
-38 39 40 0
41 37 0
41 -40 0
-37 40 -41 0
-42 -9 0
-42 29 0
9 -29 42 0
43 12 0
43 11 0
-12 -11 -43 0
-9 -43 -44 0
9 43 -44 0
-9 43 44 0
9 -43 44 0
44 13 -45 0
-44 -13 -45 0
44 -13 45 0
-44 13 45 0
-46 42 0
-46 -45 0
-42 45 46 0
-41 46 -47 0
41 -46 -47 0
-41 -46 47 0
41 46 47 0
-36 47 -48 0
36 -47 -48 0
-36 -47 48 0
36 47 48 0
-49 33 0
-49 -48 0
-33 48 49 0
32 -49 -50 0
-32 49 -50 0
32 49 50 0
-32 -49 50 0
-51 -19 0
-51 50 0
19 -50 51 0
39 14 -24 4 -16 0
18 -35 -13 22 15 -19 0
5 21 0
-45 -40 0
29 -39 0
-16 -38 25 37 0
6 48 19 43 0
18 -1 0
11 -49 45 15 37 0
16 38 19 0
36 -44 -2 0
-3 -46 0
28 30 29 43 -36 0
-14 -37 36 26 -43 0
-44 42 0
31 25 -5 0
-48 18 28 0
9 -20 16 0
25 -38 0
44 -38 16 0
-35 1 -38 -14 11 0
12 23 25 -9 3 0
-23 40 39 -47 0
10 -24 29 -37 49 -12 0
27 22 0
-33 8 0
1 -5 -23 0
40 -43 -5 0
21 15 0
-28 -4 -6 0
-24 3 -44 0
-39 10 2 -5 0
27 7 0
-23 28 0
42 -12 19 -15 0
-36 41 -24 42 37 0
5 40 -43 0
2 -51 -8 5 0
-48 13 -6 40 17 0
51 -1 -34 47 -14 0
29 36 45 6 0
51 0
